proyfinal/src/viki/013/experimentInOfficeAgust.take6.output/27a89ef4-cbb9-465b-9b93-44c5c52d523a.als.dat
{'cnf.clauses': '118081',
 'cnf.totvars': '69608',
 'conflict literals': '17',
 'conflicts': '10',
 'decisions': '1759',
 'memused.mb': '16.51',
 'outcome': 'UNSAT',
 'propagations': '23080',
 'restarts': '1',
 'solver.msecs': 35,
 'task.msecs': 77}
