proyfinal/src/viki/013/experimentInOfficeAgust.take6.output/27a89ef4-cbb9-465b-9b93-44c5c52d523a.als.out
Reading from standard input... Use '--help' for help.
============================[ Problem Statistics ]=============================
|                                                                             |
|  Number of variables:         69608                                         |
|  Number of clauses:          118081                                         |
|  Parse time:                   0.03 s                                       |
|                                                                             |
============================[ Search Statistics ]==============================
| Conflicts |          ORIGINAL         |          LEARNT          | Progress |
|           |    Vars  Clauses Literals |    Limit  Clauses Lit/Cl |          |
===============================================================================
===============================================================================
restarts              : 1
conflicts             : 10             (283 /sec)
decisions             : 1759           (0.00 % random) (49815 /sec)
propagations          : 23080          (653621 /sec)
conflict literals     : 17             (0.00 % deleted)
Memory used           : 16.51 MB
CPU time              : 0.035311 s

UNSATISFIABLE
